
Gurobi 6.5.2 (linux64) logging started Wed Mar 15 12:47:27 2017


Gurobi 6.5.2 (linux64) logging started Wed Mar 15 12:47:27 2017

Optimize a model with 101 rows, 418 columns and 935 nonzeros
Coefficient statistics:
  Matrix range    [1e+00, 2e+00]
  Objective range [2e+00, 1e+02]
  Bounds range    [1e+00, 1e+00]
  RHS range       [1e+00, 1e+00]
Found heuristic solution: objective 1795
Presolve removed 34 rows and 11 columns
Presolve time: 0.00s
Presolved: 67 rows, 407 columns, 822 nonzeros
Variable types: 0 continuous, 407 integer (407 binary)

Root relaxation: objective 8.135000e+02, 73 iterations, 0.00 seconds

    Nodes    |    Current Node    |     Objective Bounds      |     Work
 Expl Unexpl |  Obj  Depth IntInf | Incumbent    BestBd   Gap | It/Node Time

     0     0  813.50000    0   18 1795.00000  813.50000  54.7%     -    0s
H    0     0                     940.0000000  813.50000  13.5%     -    0s
H    0     0                     887.0000000  813.50000  8.29%     -    0s
     0     0  850.50000    0    2  887.00000  850.50000  4.11%     -    0s
H    0     0                     882.0000000  850.50000  3.57%     -    0s
     0     0  854.50000    0   19  882.00000  854.50000  3.12%     -    0s
     0     0  854.50000    0   18  882.00000  854.50000  3.12%     -    0s
     0     0  854.50000    0   11  882.00000  854.50000  3.12%     -    0s
H    0     0                     874.0000000  854.50000  2.23%     -    0s
     0     0  854.50000    0   11  874.00000  854.50000  2.23%     -    0s
     0     0  856.00000    0   26  874.00000  856.00000  2.06%     -    0s
     0     0  856.00000    0   10  874.00000  856.00000  2.06%     -    0s
     0     0  856.00000    0   22  874.00000  856.00000  2.06%     -    0s
     0     0  856.00000    0   28  874.00000  856.00000  2.06%     -    0s
H    0     0                     858.0000000  856.00000  0.23%     -    0s
     0     0  856.00000    0   10  858.00000  856.00000  0.23%     -    0s
     0     0  856.45000    0   37  858.00000  856.45000  0.18%     -    0s

Explored 0 nodes (340 simplex iterations) in 0.04 seconds
Thread count was 8 (of 8 available processors)

Optimal solution found (tolerance 1.00e-04)
Best objective 8.580000000000e+02, best bound 8.570000000000e+02, gap 0.1166%
